
Gurobi 10.0.1 (win64) logging started Sun Oct  8 04:17:27 2023

Set parameter LogFile to value "./results//log/FMS_05_makespan_heurFalse.log"
Gurobi Optimizer version 10.0.1 build v10.0.1rc0 (win64)

CPU model: AMD Ryzen 7 3700X 8-Core Processor, instruction set [SSE2|AVX|AVX2]
Thread count: 8 physical cores, 16 logical processors, using up to 16 threads

Optimize a model with 112 rows, 61 columns and 451 nonzeros
Model fingerprint: 0x871dac7c
Variable types: 0 continuous, 61 integer (48 binary)
Coefficient statistics:
  Matrix range     [1e+00, 1e+07]
  Objective range  [1e+00, 1e+00]
  Bounds range     [1e+00, 1e+00]
  RHS range        [1e+00, 3e+07]
Found heuristic solution: objective 2416.0000000
Presolve removed 19 rows and 25 columns
Presolve time: 0.00s
Presolved: 93 rows, 36 columns, 411 nonzeros
Variable types: 0 continuous, 36 integer (24 binary)

Root relaxation: objective 1.653000e+03, 17 iterations, 0.00 seconds (0.00 work units)

    Nodes    |    Current Node    |     Objective Bounds      |     Work
 Expl Unexpl |  Obj  Depth IntInf | Incumbent    BestBd   Gap | It/Node Time

     0     0 1653.00000    0    4 2416.00000 1653.00000  31.6%     -    0s
H    0     0                    2414.0000000 1653.00000  31.5%     -    0s
H    0     0                    2258.0000000 1653.00000  26.8%     -    0s
H    0     0                    2123.0000000 1653.00000  22.1%     -    0s
     0     0 1660.00000    0    6 2123.00000 1660.00000  21.8%     -    0s
H    0     0                    2027.0000000 1667.00000  17.8%     -    0s
     0     0 1667.00000    0   10 2027.00000 1667.00000  17.8%     -    0s
     0     0 1668.00011    0   12 2027.00000 1668.00011  17.7%     -    0s
     0     0 1668.00011    0   12 2027.00000 1668.00011  17.7%     -    0s
     0     0 1675.48235    0    8 2027.00000 1675.48235  17.3%     -    0s
     0     0 1682.00000    0    9 2027.00000 1682.00000  17.0%     -    0s
     0     0 1682.00000    0   11 2027.00000 1682.00000  17.0%     -    0s
     0     0 1682.00000    0   13 2027.00000 1682.00000  17.0%     -    0s
     0     0 1682.00000    0   13 2027.00000 1682.00000  17.0%     -    0s
     0     0 1686.00000    0   12 2027.00000 1686.00000  16.8%     -    0s
     0     0 1686.00000    0   12 2027.00000 1686.00000  16.8%     -    0s
     0     2 1686.00000    0   12 2027.00000 1686.00000  16.8%     -    0s

Cutting planes:
  Learned: 13
  Gomory: 3
  Implied bound: 2
  MIR: 1
  Flow cover: 4

Explored 293 nodes (1160 simplex iterations) in 0.26 seconds (0.01 work units)
Thread count was 16 (of 16 available processors)

Solution count 5: 2027 2123 2258 ... 2416

Optimal solution found (tolerance 1.00e-04)
Best objective 2.027000000000e+03, best bound 2.027000000000e+03, gap 0.0000%
Warning: constraint name "precedence between 0,0 to 0,1 if x_[0,0,0,1,0]=0, i.e. 0,1 before 0,0" has a space
Warning: constraint name "precedence between 0,0 to 0,1 if x_[0,0,0,1,0]=0, i.e. 0,1 before 0,0" has a space
Warning: default constraint names used to write mps file
